NAME                                                                    ( MAX)
ROWS
  N 1
  L C2
  L C3
COLUMNS
    X         C3           3.0000000
    X         C2           4.0000000
    X         1            2.0000000
    Y         C2           3.0000000
    Y         C3           5.0000000
    Y         1            3.0000000
RHS
    RHS       C2          10.0000000
    RHS       C3          12.0000000
ENDATA
